; benchmark generated from python API
(set-info :status unknown)
(declare-fun cell_1_8 () Int)
(declare-fun cell_1_9 () Int)
(declare-fun cell_2_2 () Int)
(declare-fun cell_2_5 () Int)
(declare-fun cell_3_1 () Int)
(declare-fun cell_3_4 () Int)
(declare-fun cell_4_2 () Int)
(declare-fun cell_4_9 () Int)
(declare-fun cell_5_1 () Int)
(declare-fun cell_5_6 () Int)
(declare-fun cell_6_6 () Int)
(declare-fun cell_7_7 () Int)
(declare-fun cell_8_5 () Int)
(declare-fun cell_9_3 () Int)
(declare-fun cell_1_1 () Int)
(declare-fun cell_2_1 () Int)
(declare-fun cell_4_1 () Int)
(declare-fun cell_6_1 () Int)
(declare-fun cell_7_1 () Int)
(declare-fun cell_8_1 () Int)
(declare-fun cell_9_1 () Int)
(declare-fun cell_1_2 () Int)
(declare-fun cell_3_2 () Int)
(declare-fun cell_5_2 () Int)
(declare-fun cell_6_2 () Int)
(declare-fun cell_7_2 () Int)
(declare-fun cell_8_2 () Int)
(declare-fun cell_9_2 () Int)
(declare-fun cell_1_3 () Int)
(declare-fun cell_2_3 () Int)
(declare-fun cell_3_3 () Int)
(declare-fun cell_4_3 () Int)
(declare-fun cell_5_3 () Int)
(declare-fun cell_6_3 () Int)
(declare-fun cell_7_3 () Int)
(declare-fun cell_8_3 () Int)
(declare-fun cell_1_4 () Int)
(declare-fun cell_2_4 () Int)
(declare-fun cell_4_4 () Int)
(declare-fun cell_5_4 () Int)
(declare-fun cell_6_4 () Int)
(declare-fun cell_7_4 () Int)
(declare-fun cell_8_4 () Int)
(declare-fun cell_9_4 () Int)
(declare-fun cell_1_5 () Int)
(declare-fun cell_3_5 () Int)
(declare-fun cell_4_5 () Int)
(declare-fun cell_5_5 () Int)
(declare-fun cell_6_5 () Int)
(declare-fun cell_7_5 () Int)
(declare-fun cell_9_5 () Int)
(declare-fun cell_1_6 () Int)
(declare-fun cell_2_6 () Int)
(declare-fun cell_3_6 () Int)
(declare-fun cell_4_6 () Int)
(declare-fun cell_7_6 () Int)
(declare-fun cell_8_6 () Int)
(declare-fun cell_9_6 () Int)
(declare-fun cell_1_7 () Int)
(declare-fun cell_2_7 () Int)
(declare-fun cell_3_7 () Int)
(declare-fun cell_4_7 () Int)
(declare-fun cell_5_7 () Int)
(declare-fun cell_6_7 () Int)
(declare-fun cell_8_7 () Int)
(declare-fun cell_9_7 () Int)
(declare-fun cell_2_8 () Int)
(declare-fun cell_3_8 () Int)
(declare-fun cell_4_8 () Int)
(declare-fun cell_5_8 () Int)
(declare-fun cell_6_8 () Int)
(declare-fun cell_7_8 () Int)
(declare-fun cell_8_8 () Int)
(declare-fun cell_9_8 () Int)
(declare-fun cell_2_9 () Int)
(declare-fun cell_3_9 () Int)
(declare-fun cell_5_9 () Int)
(declare-fun cell_6_9 () Int)
(declare-fun cell_7_9 () Int)
(declare-fun cell_8_9 () Int)
(declare-fun cell_9_9 () Int)
(assert
 (= cell_1_8 1))
(assert
 (= cell_1_9 2))
(assert
 (= cell_2_2 1))
(assert
 (= cell_2_5 2))
(assert
 (= cell_3_1 2))
(assert
 (= cell_3_4 1))
(assert
 (= cell_4_2 2))
(assert
 (= cell_4_9 1))
(assert
 (= cell_5_1 1))
(assert
 (= cell_5_6 2))
(assert
 (= cell_6_6 1))
(assert
 (= cell_7_7 1))
(assert
 (= cell_8_5 1))
(assert
 (= cell_9_3 1))
(assert
 (let (($x4467 (= cell_1_1 9)))
 (let (($x2619 (= cell_1_1 8)))
 (let (($x2023 (= cell_1_1 7)))
 (let (($x884 (= cell_1_1 6)))
 (let (($x3233 (= cell_1_1 5)))
 (let (($x477 (= cell_1_1 4)))
 (let (($x2257 (= cell_1_1 3)))
 (let (($x2869 (= cell_1_1 2)))
 (let (($x1134 (= cell_1_1 1)))
 (or $x1134 $x2869 $x2257 $x477 $x3233 $x884 $x2023 $x2619 $x4467)))))))))))
(assert
 (let (($x1038 (= cell_2_1 9)))
 (let (($x411 (= cell_2_1 8)))
 (let (($x786 (= cell_2_1 7)))
 (let (($x2932 (= cell_2_1 6)))
 (let (($x1022 (= cell_2_1 5)))
 (let (($x2133 (= cell_2_1 4)))
 (let (($x2067 (= cell_2_1 3)))
 (let (($x922 (= cell_2_1 2)))
 (let (($x1707 (= cell_2_1 1)))
 (or $x1707 $x922 $x2067 $x2133 $x1022 $x2932 $x786 $x411 $x1038)))))))))))
(assert
 (let (($x1837 (= cell_3_1 2)))
 (or (= cell_3_1 1) $x1837 (= cell_3_1 3) (= cell_3_1 4) (= cell_3_1 5) (= cell_3_1 6) (= cell_3_1 7) (= cell_3_1 8) (= cell_3_1 9))))
(assert
 (let (($x210 (= cell_4_1 9)))
 (let (($x2683 (= cell_4_1 8)))
 (let (($x1722 (= cell_4_1 7)))
 (let (($x2319 (= cell_4_1 6)))
 (let (($x3187 (= cell_4_1 5)))
 (let (($x1231 (= cell_4_1 4)))
 (let (($x1499 (= cell_4_1 3)))
 (let (($x2129 (= cell_4_1 2)))
 (let (($x2646 (= cell_4_1 1)))
 (or $x2646 $x2129 $x1499 $x1231 $x3187 $x2319 $x1722 $x2683 $x210)))))))))))
(assert
 (let (($x1898 (= cell_5_1 1)))
 (or $x1898 (= cell_5_1 2) (= cell_5_1 3) (= cell_5_1 4) (= cell_5_1 5) (= cell_5_1 6) (= cell_5_1 7) (= cell_5_1 8) (= cell_5_1 9))))
(assert
 (let (($x2592 (= cell_6_1 9)))
 (let (($x1264 (= cell_6_1 8)))
 (let (($x1092 (= cell_6_1 7)))
 (let (($x3210 (= cell_6_1 6)))
 (let (($x3393 (= cell_6_1 5)))
 (let (($x802 (= cell_6_1 4)))
 (let (($x606 (= cell_6_1 3)))
 (let (($x481 (= cell_6_1 2)))
 (let (($x2037 (= cell_6_1 1)))
 (or $x2037 $x481 $x606 $x802 $x3393 $x3210 $x1092 $x1264 $x2592)))))))))))
(assert
 (let (($x1473 (= cell_7_1 9)))
 (let (($x2283 (= cell_7_1 8)))
 (let (($x957 (= cell_7_1 7)))
 (let (($x3155 (= cell_7_1 6)))
 (let (($x586 (= cell_7_1 5)))
 (let (($x192 (= cell_7_1 4)))
 (let (($x2325 (= cell_7_1 3)))
 (let (($x1747 (= cell_7_1 2)))
 (let (($x3329 (= cell_7_1 1)))
 (or $x3329 $x1747 $x2325 $x192 $x586 $x3155 $x957 $x2283 $x1473)))))))))))
(assert
 (let (($x1504 (= cell_8_1 9)))
 (let (($x1126 (= cell_8_1 8)))
 (let (($x2957 (= cell_8_1 7)))
 (let (($x906 (= cell_8_1 6)))
 (let (($x617 (= cell_8_1 5)))
 (let (($x3156 (= cell_8_1 4)))
 (let (($x410 (= cell_8_1 3)))
 (let (($x1721 (= cell_8_1 2)))
 (let (($x1978 (= cell_8_1 1)))
 (or $x1978 $x1721 $x410 $x3156 $x617 $x906 $x2957 $x1126 $x1504)))))))))))
(assert
 (let (($x3101 (= cell_9_1 9)))
 (let (($x655 (= cell_9_1 8)))
 (let (($x2514 (= cell_9_1 7)))
 (let (($x2863 (= cell_9_1 6)))
 (let (($x1843 (= cell_9_1 5)))
 (let (($x2784 (= cell_9_1 4)))
 (let (($x2208 (= cell_9_1 3)))
 (let (($x1066 (= cell_9_1 2)))
 (let (($x2138 (= cell_9_1 1)))
 (or $x2138 $x1066 $x2208 $x2784 $x1843 $x2863 $x2514 $x655 $x3101)))))))))))
(assert
 (let (($x834 (= cell_1_2 9)))
 (let (($x1123 (= cell_1_2 8)))
 (let (($x2555 (= cell_1_2 7)))
 (let (($x426 (= cell_1_2 6)))
 (let (($x1016 (= cell_1_2 5)))
 (let (($x2122 (= cell_1_2 4)))
 (let (($x1780 (= cell_1_2 3)))
 (let (($x1607 (= cell_1_2 2)))
 (let (($x1238 (= cell_1_2 1)))
 (or $x1238 $x1607 $x1780 $x2122 $x1016 $x426 $x2555 $x1123 $x834)))))))))))
(assert
 (let (($x3052 (= cell_2_2 1)))
 (or $x3052 (= cell_2_2 2) (= cell_2_2 3) (= cell_2_2 4) (= cell_2_2 5) (= cell_2_2 6) (= cell_2_2 7) (= cell_2_2 8) (= cell_2_2 9))))
(assert
 (let (($x2020 (= cell_3_2 9)))
 (let (($x2356 (= cell_3_2 8)))
 (let (($x4141 (= cell_3_2 7)))
 (let (($x2205 (= cell_3_2 6)))
 (let (($x384 (= cell_3_2 5)))
 (let (($x3328 (= cell_3_2 4)))
 (let (($x2036 (= cell_3_2 3)))
 (let (($x264 (= cell_3_2 2)))
 (let (($x1446 (= cell_3_2 1)))
 (or $x1446 $x264 $x2036 $x3328 $x384 $x2205 $x4141 $x2356 $x2020)))))))))))
(assert
 (let (($x3332 (= cell_4_2 2)))
 (or (= cell_4_2 1) $x3332 (= cell_4_2 3) (= cell_4_2 4) (= cell_4_2 5) (= cell_4_2 6) (= cell_4_2 7) (= cell_4_2 8) (= cell_4_2 9))))
(assert
 (let (($x1786 (= cell_5_2 9)))
 (let (($x3059 (= cell_5_2 8)))
 (let (($x1032 (= cell_5_2 7)))
 (let (($x1569 (= cell_5_2 6)))
 (let (($x2931 (= cell_5_2 5)))
 (let (($x658 (= cell_5_2 4)))
 (let (($x1744 (= cell_5_2 3)))
 (let (($x3290 (= cell_5_2 2)))
 (let (($x2255 (= cell_5_2 1)))
 (or $x2255 $x3290 $x1744 $x658 $x2931 $x1569 $x1032 $x3059 $x1786)))))))))))
(assert
 (let (($x2598 (= cell_6_2 9)))
 (let (($x641 (= cell_6_2 8)))
 (let (($x3249 (= cell_6_2 7)))
 (let (($x690 (= cell_6_2 6)))
 (let (($x312 (= cell_6_2 5)))
 (let (($x2587 (= cell_6_2 4)))
 (let (($x753 (= cell_6_2 3)))
 (let (($x1791 (= cell_6_2 2)))
 (let (($x2594 (= cell_6_2 1)))
 (or $x2594 $x1791 $x753 $x2587 $x312 $x690 $x3249 $x641 $x2598)))))))))))
(assert
 (let (($x6824 (= cell_7_2 9)))
 (let (($x1969 (= cell_7_2 8)))
 (let (($x868 (= cell_7_2 7)))
 (let (($x1045 (= cell_7_2 6)))
 (let (($x1337 (= cell_7_2 5)))
 (let (($x1756 (= cell_7_2 4)))
 (let (($x688 (= cell_7_2 3)))
 (let (($x101 (= cell_7_2 2)))
 (let (($x2008 (= cell_7_2 1)))
 (or $x2008 $x101 $x688 $x1756 $x1337 $x1045 $x868 $x1969 $x6824)))))))))))
(assert
 (let (($x2076 (= cell_8_2 9)))
 (let (($x981 (= cell_8_2 8)))
 (let (($x359 (= cell_8_2 7)))
 (let (($x2933 (= cell_8_2 6)))
 (let (($x1188 (= cell_8_2 5)))
 (let (($x127 (= cell_8_2 4)))
 (let (($x667 (= cell_8_2 3)))
 (let (($x184 (= cell_8_2 2)))
 (let (($x926 (= cell_8_2 1)))
 (or $x926 $x184 $x667 $x127 $x1188 $x2933 $x359 $x981 $x2076)))))))))))
(assert
 (let (($x844 (= cell_9_2 9)))
 (let (($x93 (= cell_9_2 8)))
 (let (($x3039 (= cell_9_2 7)))
 (let (($x1103 (= cell_9_2 6)))
 (let (($x514 (= cell_9_2 5)))
 (let (($x1634 (= cell_9_2 4)))
 (let (($x1028 (= cell_9_2 3)))
 (let (($x1135 (= cell_9_2 2)))
 (let (($x163 (= cell_9_2 1)))
 (or $x163 $x1135 $x1028 $x1634 $x514 $x1103 $x3039 $x93 $x844)))))))))))
(assert
 (let (($x760 (= cell_1_3 9)))
 (let (($x2928 (= cell_1_3 8)))
 (let (($x1182 (= cell_1_3 7)))
 (let (($x2874 (= cell_1_3 6)))
 (let (($x2355 (= cell_1_3 5)))
 (let (($x2512 (= cell_1_3 4)))
 (let (($x993 (= cell_1_3 3)))
 (let (($x1096 (= cell_1_3 2)))
 (let (($x797 (= cell_1_3 1)))
 (or $x797 $x1096 $x993 $x2512 $x2355 $x2874 $x1182 $x2928 $x760)))))))))))
(assert
 (let (($x849 (= cell_2_3 9)))
 (let (($x1399 (= cell_2_3 8)))
 (let (($x1869 (= cell_2_3 7)))
 (let (($x4103 (= cell_2_3 6)))
 (let (($x649 (= cell_2_3 5)))
 (let (($x1413 (= cell_2_3 4)))
 (let (($x33 (= cell_2_3 3)))
 (let (($x1309 (= cell_2_3 2)))
 (let (($x468 (= cell_2_3 1)))
 (or $x468 $x1309 $x33 $x1413 $x649 $x4103 $x1869 $x1399 $x849)))))))))))
(assert
 (let (($x789 (= cell_3_3 9)))
 (let (($x3244 (= cell_3_3 8)))
 (let (($x79 (= cell_3_3 7)))
 (let (($x1145 (= cell_3_3 6)))
 (let (($x1661 (= cell_3_3 5)))
 (let (($x2496 (= cell_3_3 4)))
 (let (($x2503 (= cell_3_3 3)))
 (let (($x1600 (= cell_3_3 2)))
 (let (($x1256 (= cell_3_3 1)))
 (or $x1256 $x1600 $x2503 $x2496 $x1661 $x1145 $x79 $x3244 $x789)))))))))))
(assert
 (let (($x1209 (= cell_4_3 9)))
 (let (($x2024 (= cell_4_3 8)))
 (let (($x1874 (= cell_4_3 7)))
 (let (($x2727 (= cell_4_3 6)))
 (let (($x1873 (= cell_4_3 5)))
 (let (($x3024 (= cell_4_3 4)))
 (let (($x1911 (= cell_4_3 3)))
 (let (($x954 (= cell_4_3 2)))
 (let (($x3219 (= cell_4_3 1)))
 (or $x3219 $x954 $x1911 $x3024 $x1873 $x2727 $x1874 $x2024 $x1209)))))))))))
(assert
 (let (($x1482 (= cell_5_3 9)))
 (let (($x734 (= cell_5_3 8)))
 (let (($x3307 (= cell_5_3 7)))
 (let (($x702 (= cell_5_3 6)))
 (let (($x1754 (= cell_5_3 5)))
 (let (($x2486 (= cell_5_3 4)))
 (let (($x1340 (= cell_5_3 3)))
 (let (($x2795 (= cell_5_3 2)))
 (let (($x3339 (= cell_5_3 1)))
 (or $x3339 $x2795 $x1340 $x2486 $x1754 $x702 $x3307 $x734 $x1482)))))))))))
(assert
 (let (($x1855 (= cell_6_3 9)))
 (let (($x3231 (= cell_6_3 8)))
 (let (($x3234 (= cell_6_3 7)))
 (let (($x1046 (= cell_6_3 6)))
 (let (($x2883 (= cell_6_3 5)))
 (let (($x2860 (= cell_6_3 4)))
 (let (($x1716 (= cell_6_3 3)))
 (let (($x506 (= cell_6_3 2)))
 (let (($x436 (= cell_6_3 1)))
 (or $x436 $x506 $x1716 $x2860 $x2883 $x1046 $x3234 $x3231 $x1855)))))))))))
(assert
 (let (($x2434 (= cell_7_3 9)))
 (let (($x3193 (= cell_7_3 8)))
 (let (($x1627 (= cell_7_3 7)))
 (let (($x694 (= cell_7_3 6)))
 (let (($x1503 (= cell_7_3 5)))
 (let (($x158 (= cell_7_3 4)))
 (let (($x2490 (= cell_7_3 3)))
 (let (($x1081 (= cell_7_3 2)))
 (let (($x3353 (= cell_7_3 1)))
 (or $x3353 $x1081 $x2490 $x158 $x1503 $x694 $x1627 $x3193 $x2434)))))))))))
(assert
 (let (($x316 (= cell_8_3 9)))
 (let (($x2664 (= cell_8_3 8)))
 (let (($x429 (= cell_8_3 7)))
 (let (($x877 (= cell_8_3 6)))
 (let (($x240 (= cell_8_3 5)))
 (let (($x2913 (= cell_8_3 4)))
 (let (($x2284 (= cell_8_3 3)))
 (let (($x2285 (= cell_8_3 2)))
 (let (($x1840 (= cell_8_3 1)))
 (or $x1840 $x2285 $x2284 $x2913 $x240 $x877 $x429 $x2664 $x316)))))))))))
(assert
 (let (($x730 (= cell_9_3 1)))
 (or $x730 (= cell_9_3 2) (= cell_9_3 3) (= cell_9_3 4) (= cell_9_3 5) (= cell_9_3 6) (= cell_9_3 7) (= cell_9_3 8) (= cell_9_3 9))))
(assert
 (let (($x1240 (= cell_1_4 9)))
 (let (($x583 (= cell_1_4 8)))
 (let (($x2765 (= cell_1_4 7)))
 (let (($x2938 (= cell_1_4 6)))
 (let (($x2177 (= cell_1_4 5)))
 (let (($x2723 (= cell_1_4 4)))
 (let (($x1012 (= cell_1_4 3)))
 (let (($x1189 (= cell_1_4 2)))
 (let (($x2342 (= cell_1_4 1)))
 (or $x2342 $x1189 $x1012 $x2723 $x2177 $x2938 $x2765 $x583 $x1240)))))))))))
(assert
 (let (($x3177 (= cell_2_4 9)))
 (let (($x2447 (= cell_2_4 8)))
 (let (($x2127 (= cell_2_4 7)))
 (let (($x1673 (= cell_2_4 6)))
 (let (($x1035 (= cell_2_4 5)))
 (let (($x3095 (= cell_2_4 4)))
 (let (($x523 (= cell_2_4 3)))
 (let (($x214 (= cell_2_4 2)))
 (let (($x1133 (= cell_2_4 1)))
 (or $x1133 $x214 $x523 $x3095 $x1035 $x1673 $x2127 $x2447 $x3177)))))))))))
(assert
 (let (($x1042 (= cell_3_4 1)))
 (or $x1042 (= cell_3_4 2) (= cell_3_4 3) (= cell_3_4 4) (= cell_3_4 5) (= cell_3_4 6) (= cell_3_4 7) (= cell_3_4 8) (= cell_3_4 9))))
(assert
 (let (($x1418 (= cell_4_4 9)))
 (let (($x155 (= cell_4_4 8)))
 (let (($x1262 (= cell_4_4 7)))
 (let (($x1282 (= cell_4_4 6)))
 (let (($x3082 (= cell_4_4 5)))
 (let (($x2401 (= cell_4_4 4)))
 (let (($x572 (= cell_4_4 3)))
 (let (($x839 (= cell_4_4 2)))
 (let (($x2804 (= cell_4_4 1)))
 (or $x2804 $x839 $x572 $x2401 $x3082 $x1282 $x1262 $x155 $x1418)))))))))))
(assert
 (let (($x816 (= cell_5_4 9)))
 (let (($x3022 (= cell_5_4 8)))
 (let (($x438 (= cell_5_4 7)))
 (let (($x1069 (= cell_5_4 6)))
 (let (($x3296 (= cell_5_4 5)))
 (let (($x2483 (= cell_5_4 4)))
 (let (($x2065 (= cell_5_4 3)))
 (let (($x2671 (= cell_5_4 2)))
 (let (($x2831 (= cell_5_4 1)))
 (or $x2831 $x2671 $x2065 $x2483 $x3296 $x1069 $x438 $x3022 $x816)))))))))))
(assert
 (let (($x2893 (= cell_6_4 9)))
 (let (($x3174 (= cell_6_4 8)))
 (let (($x2995 (= cell_6_4 7)))
 (let (($x2695 (= cell_6_4 6)))
 (let (($x1653 (= cell_6_4 5)))
 (let (($x1889 (= cell_6_4 4)))
 (let (($x2643 (= cell_6_4 3)))
 (let (($x717 (= cell_6_4 2)))
 (let (($x2101 (= cell_6_4 1)))
 (or $x2101 $x717 $x2643 $x1889 $x1653 $x2695 $x2995 $x3174 $x2893)))))))))))
(assert
 (let (($x2419 (= cell_7_4 9)))
 (let (($x3227 (= cell_7_4 8)))
 (let (($x3260 (= cell_7_4 7)))
 (let (($x1646 (= cell_7_4 6)))
 (let (($x2541 (= cell_7_4 5)))
 (let (($x2111 (= cell_7_4 4)))
 (let (($x573 (= cell_7_4 3)))
 (let (($x627 (= cell_7_4 2)))
 (let (($x2613 (= cell_7_4 1)))
 (or $x2613 $x627 $x573 $x2111 $x2541 $x1646 $x3260 $x3227 $x2419)))))))))))
(assert
 (let (($x683 (= cell_8_4 9)))
 (let (($x2416 (= cell_8_4 8)))
 (let (($x4305 (= cell_8_4 7)))
 (let (($x3265 (= cell_8_4 6)))
 (let (($x1927 (= cell_8_4 5)))
 (let (($x869 (= cell_8_4 4)))
 (let (($x2298 (= cell_8_4 3)))
 (let (($x2785 (= cell_8_4 2)))
 (let (($x859 (= cell_8_4 1)))
 (or $x859 $x2785 $x2298 $x869 $x1927 $x3265 $x4305 $x2416 $x683)))))))))))
(assert
 (let (($x1858 (= cell_9_4 1)))
 (or $x1858 (= cell_9_4 2) (= cell_9_4 3) (= cell_9_4 4) (= cell_9_4 5) (= cell_9_4 6) (= cell_9_4 7) (= cell_9_4 8) (= cell_9_4 9))))
(assert
 (let (($x173 (= cell_1_5 9)))
 (let (($x2352 (= cell_1_5 8)))
 (let (($x1613 (= cell_1_5 7)))
 (let (($x3071 (= cell_1_5 6)))
 (let (($x7819 (= cell_1_5 5)))
 (let (($x2758 (= cell_1_5 4)))
 (let (($x2751 (= cell_1_5 3)))
 (let (($x1198 (= cell_1_5 2)))
 (let (($x7 (= cell_1_5 1)))
 (or $x7 $x1198 $x2751 $x2758 $x7819 $x3071 $x1613 $x2352 $x173)))))))))))
(assert
 (let (($x138 (= cell_2_5 2)))
 (or (= cell_2_5 1) $x138 (= cell_2_5 3) (= cell_2_5 4) (= cell_2_5 5) (= cell_2_5 6) (= cell_2_5 7) (= cell_2_5 8) (= cell_2_5 9))))
(assert
 (let (($x1142 (= cell_3_5 9)))
 (let (($x921 (= cell_3_5 8)))
 (let (($x1821 (= cell_3_5 7)))
 (let (($x2117 (= cell_3_5 6)))
 (let (($x407 (= cell_3_5 5)))
 (let (($x2445 (= cell_3_5 4)))
 (let (($x1570 (= cell_3_5 3)))
 (let (($x2292 (= cell_3_5 2)))
 (let (($x3293 (= cell_3_5 1)))
 (or $x3293 $x2292 $x1570 $x2445 $x407 $x2117 $x1821 $x921 $x1142)))))))))))
(assert
 (let (($x2372 (= cell_4_5 9)))
 (let (($x2738 (= cell_4_5 8)))
 (let (($x2790 (= cell_4_5 7)))
 (let (($x1248 (= cell_4_5 6)))
 (let (($x1738 (= cell_4_5 5)))
 (let (($x2733 (= cell_4_5 4)))
 (let (($x1345 (= cell_4_5 3)))
 (let (($x2400 (= cell_4_5 2)))
 (let (($x1295 (= cell_4_5 1)))
 (or $x1295 $x2400 $x1345 $x2733 $x1738 $x1248 $x2790 $x2738 $x2372)))))))))))
(assert
 (let (($x65 (= cell_5_5 9)))
 (let (($x3354 (= cell_5_5 8)))
 (let (($x1143 (= cell_5_5 7)))
 (let (($x215 (= cell_5_5 6)))
 (let (($x1352 (= cell_5_5 5)))
 (let (($x232 (= cell_5_5 4)))
 (let (($x1361 (= cell_5_5 3)))
 (let (($x2412 (= cell_5_5 2)))
 (let (($x2189 (= cell_5_5 1)))
 (or $x2189 $x2412 $x1361 $x232 $x1352 $x215 $x1143 $x3354 $x65)))))))))))
(assert
 (let (($x476 (= cell_6_5 9)))
 (let (($x2641 (= cell_6_5 8)))
 (let (($x774 (= cell_6_5 7)))
 (let (($x3161 (= cell_6_5 6)))
 (let (($x2616 (= cell_6_5 5)))
 (let (($x3013 (= cell_6_5 4)))
 (let (($x3316 (= cell_6_5 3)))
 (let (($x347 (= cell_6_5 2)))
 (let (($x2006 (= cell_6_5 1)))
 (or $x2006 $x347 $x3316 $x3013 $x2616 $x3161 $x774 $x2641 $x476)))))))))))
(assert
 (let (($x2502 (= cell_7_5 9)))
 (let (($x3097 (= cell_7_5 8)))
 (let (($x2228 (= cell_7_5 7)))
 (let (($x3412 (= cell_7_5 6)))
 (let (($x2878 (= cell_7_5 5)))
 (let (($x520 (= cell_7_5 4)))
 (let (($x1353 (= cell_7_5 3)))
 (let (($x1901 (= cell_7_5 2)))
 (let (($x7983 (= cell_7_5 1)))
 (or $x7983 $x1901 $x1353 $x520 $x2878 $x3412 $x2228 $x3097 $x2502)))))))))))
(assert
 (let (($x1895 (= cell_8_5 1)))
 (or $x1895 (= cell_8_5 2) (= cell_8_5 3) (= cell_8_5 4) (= cell_8_5 5) (= cell_8_5 6) (= cell_8_5 7) (= cell_8_5 8) (= cell_8_5 9))))
(assert
 (let (($x1314 (= cell_9_5 2)))
 (let (($x1200 (= cell_9_5 1)))
 (or $x1200 $x1314 (= cell_9_5 3) (= cell_9_5 4) (= cell_9_5 5) (= cell_9_5 6) (= cell_9_5 7) (= cell_9_5 8) (= cell_9_5 9)))))
(assert
 (let (($x2705 (= cell_1_6 9)))
 (let (($x2018 (= cell_1_6 8)))
 (let (($x2691 (= cell_1_6 7)))
 (let (($x2626 (= cell_1_6 6)))
 (let (($x327 (= cell_1_6 5)))
 (let (($x1773 (= cell_1_6 4)))
 (let (($x2735 (= cell_1_6 3)))
 (let (($x2439 (= cell_1_6 2)))
 (let (($x1328 (= cell_1_6 1)))
 (or $x1328 $x2439 $x2735 $x1773 $x327 $x2626 $x2691 $x2018 $x2705)))))))))))
(assert
 (let (($x1767 (= cell_2_6 9)))
 (let (($x6499 (= cell_2_6 8)))
 (let (($x2923 (= cell_2_6 7)))
 (let (($x2682 (= cell_2_6 6)))
 (let (($x776 (= cell_2_6 5)))
 (let (($x224 (= cell_2_6 4)))
 (let (($x1363 (= cell_2_6 3)))
 (let (($x1165 (= cell_2_6 2)))
 (let (($x445 (= cell_2_6 1)))
 (or $x445 $x1165 $x1363 $x224 $x776 $x2682 $x2923 $x6499 $x1767)))))))))))
(assert
 (let (($x701 (= cell_3_6 9)))
 (let (($x1408 (= cell_3_6 8)))
 (let (($x1272 (= cell_3_6 7)))
 (let (($x2588 (= cell_3_6 6)))
 (let (($x348 (= cell_3_6 5)))
 (let (($x2000 (= cell_3_6 4)))
 (let (($x3223 (= cell_3_6 3)))
 (let (($x2173 (= cell_3_6 2)))
 (let (($x2972 (= cell_3_6 1)))
 (or $x2972 $x2173 $x3223 $x2000 $x348 $x2588 $x1272 $x1408 $x701)))))))))))
(assert
 (let (($x600 (= cell_4_6 9)))
 (let (($x1555 (= cell_4_6 8)))
 (let (($x266 (= cell_4_6 7)))
 (let (($x1806 (= cell_4_6 6)))
 (let (($x2186 (= cell_4_6 5)))
 (let (($x941 (= cell_4_6 4)))
 (let (($x3348 (= cell_4_6 3)))
 (let (($x417 (= cell_4_6 2)))
 (let (($x2820 (= cell_4_6 1)))
 (or $x2820 $x417 $x3348 $x941 $x2186 $x1806 $x266 $x1555 $x600)))))))))))
(assert
 (let (($x2385 (= cell_5_6 2)))
 (or (= cell_5_6 1) $x2385 (= cell_5_6 3) (= cell_5_6 4) (= cell_5_6 5) (= cell_5_6 6) (= cell_5_6 7) (= cell_5_6 8) (= cell_5_6 9))))
(assert
 (let (($x281 (= cell_6_6 1)))
 (or $x281 (= cell_6_6 2) (= cell_6_6 3) (= cell_6_6 4) (= cell_6_6 5) (= cell_6_6 6) (= cell_6_6 7) (= cell_6_6 8) (= cell_6_6 9))))
(assert
 (let (($x2761 (= cell_7_6 9)))
 (let (($x741 (= cell_7_6 8)))
 (let (($x443 (= cell_7_6 7)))
 (let (($x1879 (= cell_7_6 6)))
 (let (($x616 (= cell_7_6 5)))
 (let (($x1958 (= cell_7_6 4)))
 (let (($x3236 (= cell_7_6 3)))
 (let (($x3278 (= cell_7_6 2)))
 (let (($x2721 (= cell_7_6 1)))
 (or $x2721 $x3278 $x3236 $x1958 $x616 $x1879 $x443 $x741 $x2761)))))))))))
(assert
 (let (($x2545 (= cell_8_6 2)))
 (let (($x3062 (= cell_8_6 1)))
 (or $x3062 $x2545 (= cell_8_6 3) (= cell_8_6 4) (= cell_8_6 5) (= cell_8_6 6) (= cell_8_6 7) (= cell_8_6 8) (= cell_8_6 9)))))
(assert
 (let (($x584 (= cell_9_6 2)))
 (let (($x1158 (= cell_9_6 1)))
 (or $x1158 $x584 (= cell_9_6 3) (= cell_9_6 4) (= cell_9_6 5) (= cell_9_6 6) (= cell_9_6 7) (= cell_9_6 8) (= cell_9_6 9)))))
(assert
 (let (($x580 (= cell_1_7 9)))
 (let (($x104 (= cell_1_7 8)))
 (let (($x307 (= cell_1_7 7)))
 (let (($x202 (= cell_1_7 6)))
 (let (($x787 (= cell_1_7 5)))
 (let (($x223 (= cell_1_7 4)))
 (let (($x2945 (= cell_1_7 3)))
 (let (($x3164 (= cell_1_7 2)))
 (let (($x3011 (= cell_1_7 1)))
 (or $x3011 $x3164 $x2945 $x223 $x787 $x202 $x307 $x104 $x580)))))))))))
(assert
 (let (($x2398 (= cell_2_7 9)))
 (let (($x2997 (= cell_2_7 8)))
 (let (($x3416 (= cell_2_7 7)))
 (let (($x3372 (= cell_2_7 6)))
 (let (($x765 (= cell_2_7 5)))
 (let (($x3067 (= cell_2_7 4)))
 (let (($x3166 (= cell_2_7 3)))
 (let (($x3380 (= cell_2_7 2)))
 (let (($x3066 (= cell_2_7 1)))
 (or $x3066 $x3380 $x3166 $x3067 $x765 $x3372 $x3416 $x2997 $x2398)))))))))))
(assert
 (let (($x2489 (= cell_3_7 9)))
 (let (($x2460 (= cell_3_7 8)))
 (let (($x2954 (= cell_3_7 7)))
 (let (($x1396 (= cell_3_7 6)))
 (let (($x193 (= cell_3_7 5)))
 (let (($x2274 (= cell_3_7 4)))
 (let (($x2068 (= cell_3_7 3)))
 (let (($x2454 (= cell_3_7 2)))
 (let (($x2263 (= cell_3_7 1)))
 (or $x2263 $x2454 $x2068 $x2274 $x193 $x1396 $x2954 $x2460 $x2489)))))))))))
(assert
 (let (($x19 (= cell_4_7 9)))
 (let (($x3407 (= cell_4_7 8)))
 (let (($x413 (= cell_4_7 7)))
 (let (($x6665 (= cell_4_7 6)))
 (let (($x682 (= cell_4_7 5)))
 (let (($x171 (= cell_4_7 4)))
 (let (($x4306 (= cell_4_7 3)))
 (let (($x2611 (= cell_4_7 2)))
 (let (($x2500 (= cell_4_7 1)))
 (or $x2500 $x2611 $x4306 $x171 $x682 $x6665 $x413 $x3407 $x19)))))))))))
(assert
 (let (($x820 (= cell_5_7 9)))
 (let (($x3381 (= cell_5_7 8)))
 (let (($x2842 (= cell_5_7 7)))
 (let (($x2403 (= cell_5_7 6)))
 (let (($x1193 (= cell_5_7 5)))
 (let (($x148 (= cell_5_7 4)))
 (let (($x970 (= cell_5_7 3)))
 (let (($x455 (= cell_5_7 2)))
 (let (($x318 (= cell_5_7 1)))
 (or $x318 $x455 $x970 $x148 $x1193 $x2403 $x2842 $x3381 $x820)))))))))))
(assert
 (let (($x708 (= cell_6_7 9)))
 (let (($x346 (= cell_6_7 8)))
 (let (($x2221 (= cell_6_7 7)))
 (let (($x750 (= cell_6_7 6)))
 (let (($x2402 (= cell_6_7 5)))
 (let (($x3037 (= cell_6_7 4)))
 (let (($x2770 (= cell_6_7 3)))
 (let (($x1760 (= cell_6_7 2)))
 (let (($x3376 (= cell_6_7 1)))
 (or $x3376 $x1760 $x2770 $x3037 $x2402 $x750 $x2221 $x346 $x708)))))))))))
(assert
 (let (($x462 (= cell_7_7 1)))
 (or $x462 (= cell_7_7 2) (= cell_7_7 3) (= cell_7_7 4) (= cell_7_7 5) (= cell_7_7 6) (= cell_7_7 7) (= cell_7_7 8) (= cell_7_7 9))))
(assert
 (let (($x1507 (= cell_8_7 1)))
 (or $x1507 (= cell_8_7 2) (= cell_8_7 3) (= cell_8_7 4) (= cell_8_7 5) (= cell_8_7 6) (= cell_8_7 7) (= cell_8_7 8) (= cell_8_7 9))))
(assert
 (let (($x1273 (= cell_9_7 1)))
 (or $x1273 (= cell_9_7 2) (= cell_9_7 3) (= cell_9_7 4) (= cell_9_7 5) (= cell_9_7 6) (= cell_9_7 7) (= cell_9_7 8) (= cell_9_7 9))))
(assert
 (let (($x1155 (= cell_1_8 1)))
 (or $x1155 (= cell_1_8 2) (= cell_1_8 3) (= cell_1_8 4) (= cell_1_8 5) (= cell_1_8 6) (= cell_1_8 7) (= cell_1_8 8) (= cell_1_8 9))))
(assert
 (let (($x1609 (= cell_2_8 2)))
 (let (($x2797 (= cell_2_8 1)))
 (or $x2797 $x1609 (= cell_2_8 3) (= cell_2_8 4) (= cell_2_8 5) (= cell_2_8 6) (= cell_2_8 7) (= cell_2_8 8) (= cell_2_8 9)))))
(assert
 (let (($x1892 (= cell_3_8 9)))
 (let (($x2812 (= cell_3_8 8)))
 (let (($x362 (= cell_3_8 7)))
 (let (($x2144 (= cell_3_8 6)))
 (let (($x1524 (= cell_3_8 5)))
 (let (($x191 (= cell_3_8 4)))
 (let (($x165 (= cell_3_8 3)))
 (let (($x1935 (= cell_3_8 2)))
 (let (($x1740 (= cell_3_8 1)))
 (or $x1740 $x1935 $x165 $x191 $x1524 $x2144 $x362 $x2812 $x1892)))))))))))
(assert
 (let (($x1810 (= cell_4_8 9)))
 (let (($x897 (= cell_4_8 8)))
 (let (($x2084 (= cell_4_8 7)))
 (let (($x113 (= cell_4_8 6)))
 (let (($x686 (= cell_4_8 5)))
 (let (($x1365 (= cell_4_8 4)))
 (let (($x2200 (= cell_4_8 3)))
 (let (($x4400 (= cell_4_8 2)))
 (let (($x1236 (= cell_4_8 1)))
 (or $x1236 $x4400 $x2200 $x1365 $x686 $x113 $x2084 $x897 $x1810)))))))))))
(assert
 (let (($x376 (= cell_5_8 2)))
 (let (($x1626 (= cell_5_8 1)))
 (or $x1626 $x376 (= cell_5_8 3) (= cell_5_8 4) (= cell_5_8 5) (= cell_5_8 6) (= cell_5_8 7) (= cell_5_8 8) (= cell_5_8 9)))))
(assert
 (let (($x1495 (= cell_6_8 9)))
 (let (($x123 (= cell_6_8 8)))
 (let (($x1508 (= cell_6_8 7)))
 (let (($x858 (= cell_6_8 6)))
 (let (($x1768 (= cell_6_8 5)))
 (let (($x3092 (= cell_6_8 4)))
 (let (($x1783 (= cell_6_8 3)))
 (let (($x504 (= cell_6_8 2)))
 (let (($x2953 (= cell_6_8 1)))
 (or $x2953 $x504 $x1783 $x3092 $x1768 $x858 $x1508 $x123 $x1495)))))))))))
(assert
 (let (($x815 (= cell_7_8 2)))
 (let (($x1489 (= cell_7_8 1)))
 (or $x1489 $x815 (= cell_7_8 3) (= cell_7_8 4) (= cell_7_8 5) (= cell_7_8 6) (= cell_7_8 7) (= cell_7_8 8) (= cell_7_8 9)))))
(assert
 (let (($x979 (= cell_8_8 1)))
 (or $x979 (= cell_8_8 2) (= cell_8_8 3) (= cell_8_8 4) (= cell_8_8 5) (= cell_8_8 6) (= cell_8_8 7) (= cell_8_8 8) (= cell_8_8 9))))
(assert
 (let (($x1173 (= cell_9_8 1)))
 (or $x1173 (= cell_9_8 2) (= cell_9_8 3) (= cell_9_8 4) (= cell_9_8 5) (= cell_9_8 6) (= cell_9_8 7) (= cell_9_8 8) (= cell_9_8 9))))
(assert
 (let (($x2495 (= cell_1_9 2)))
 (or (= cell_1_9 1) $x2495 (= cell_1_9 3) (= cell_1_9 4) (= cell_1_9 5) (= cell_1_9 6) (= cell_1_9 7) (= cell_1_9 8) (= cell_1_9 9))))
(assert
 (let (($x345 (= cell_2_9 9)))
 (let (($x3326 (= cell_2_9 8)))
 (let (($x1608 (= cell_2_9 7)))
 (let (($x2507 (= cell_2_9 6)))
 (let (($x578 (= cell_2_9 5)))
 (let (($x3280 (= cell_2_9 4)))
 (let (($x1510 (= cell_2_9 3)))
 (let (($x375 (= cell_2_9 2)))
 (let (($x1496 (= cell_2_9 1)))
 (or $x1496 $x375 $x1510 $x3280 $x578 $x2507 $x1608 $x3326 $x345)))))))))))
(assert
 (let (($x2998 (= cell_3_9 9)))
 (let (($x2754 (= cell_3_9 8)))
 (let (($x1267 (= cell_3_9 7)))
 (let (($x3382 (= cell_3_9 6)))
 (let (($x615 (= cell_3_9 5)))
 (let (($x662 (= cell_3_9 4)))
 (let (($x3169 (= cell_3_9 3)))
 (let (($x1235 (= cell_3_9 2)))
 (let (($x7478 (= cell_3_9 1)))
 (or $x7478 $x1235 $x3169 $x662 $x615 $x3382 $x1267 $x2754 $x2998)))))))))))
(assert
 (let (($x2942 (= cell_4_9 1)))
 (or $x2942 (= cell_4_9 2) (= cell_4_9 3) (= cell_4_9 4) (= cell_4_9 5) (= cell_4_9 6) (= cell_4_9 7) (= cell_4_9 8) (= cell_4_9 9))))
(assert
 (let (($x659 (= cell_5_9 9)))
 (let (($x782 (= cell_5_9 8)))
 (let (($x664 (= cell_5_9 7)))
 (let (($x2368 (= cell_5_9 6)))
 (let (($x1809 (= cell_5_9 5)))
 (let (($x7799 (= cell_5_9 4)))
 (let (($x1907 (= cell_5_9 3)))
 (let (($x612 (= cell_5_9 2)))
 (let (($x2732 (= cell_5_9 1)))
 (or $x2732 $x612 $x1907 $x7799 $x1809 $x2368 $x664 $x782 $x659)))))))))))
(assert
 (let (($x3375 (= cell_6_9 2)))
 (let (($x3051 (= cell_6_9 1)))
 (or $x3051 $x3375 (= cell_6_9 3) (= cell_6_9 4) (= cell_6_9 5) (= cell_6_9 6) (= cell_6_9 7) (= cell_6_9 8) (= cell_6_9 9)))))
(assert
 (let (($x2317 (= cell_7_9 2)))
 (let (($x2999 (= cell_7_9 1)))
 (or $x2999 $x2317 (= cell_7_9 3) (= cell_7_9 4) (= cell_7_9 5) (= cell_7_9 6) (= cell_7_9 7) (= cell_7_9 8) (= cell_7_9 9)))))
(assert
 (let (($x2268 (= cell_8_9 2)))
 (let (($x3342 (= cell_8_9 1)))
 (or $x3342 $x2268 (= cell_8_9 3) (= cell_8_9 4) (= cell_8_9 5) (= cell_8_9 6) (= cell_8_9 7) (= cell_8_9 8) (= cell_8_9 9)))))
(assert
 (let (($x199 (= cell_9_9 2)))
 (let (($x2009 (= cell_9_9 1)))
 (or $x2009 $x199 (= cell_9_9 3) (= cell_9_9 4) (= cell_9_9 5) (= cell_9_9 6) (= cell_9_9 7) (= cell_9_9 8) (= cell_9_9 9)))))
(assert
 (and (distinct cell_1_1 cell_1_2 cell_1_3 cell_1_4 cell_1_5 cell_1_6 cell_1_7 cell_1_8 cell_1_9) true))
(assert
 (and (distinct cell_2_1 cell_2_2 cell_2_3 cell_2_4 cell_2_5 cell_2_6 cell_2_7 cell_2_8 cell_2_9) true))
(assert
 (and (distinct cell_3_1 cell_3_2 cell_3_3 cell_3_4 cell_3_5 cell_3_6 cell_3_7 cell_3_8 cell_3_9) true))
(assert
 (and (distinct cell_4_1 cell_4_2 cell_4_3 cell_4_4 cell_4_5 cell_4_6 cell_4_7 cell_4_8 cell_4_9) true))
(assert
 (and (distinct cell_5_1 cell_5_2 cell_5_3 cell_5_4 cell_5_5 cell_5_6 cell_5_7 cell_5_8 cell_5_9) true))
(assert
 (and (distinct cell_6_1 cell_6_2 cell_6_3 cell_6_4 cell_6_5 cell_6_6 cell_6_7 cell_6_8 cell_6_9) true))
(assert
 (and (distinct cell_7_1 cell_7_2 cell_7_3 cell_7_4 cell_7_5 cell_7_6 cell_7_7 cell_7_8 cell_7_9) true))
(assert
 (and (distinct cell_8_1 cell_8_2 cell_8_3 cell_8_4 cell_8_5 cell_8_6 cell_8_7 cell_8_8 cell_8_9) true))
(assert
 (and (distinct cell_9_1 cell_9_2 cell_9_3 cell_9_4 cell_9_5 cell_9_6 cell_9_7 cell_9_8 cell_9_9) true))
(assert
 (and (distinct cell_1_1 cell_2_1 cell_3_1 cell_4_1 cell_5_1 cell_6_1 cell_7_1 cell_8_1 cell_9_1) true))
(assert
 (and (distinct cell_1_2 cell_2_2 cell_3_2 cell_4_2 cell_5_2 cell_6_2 cell_7_2 cell_8_2 cell_9_2) true))
(assert
 (and (distinct cell_1_3 cell_2_3 cell_3_3 cell_4_3 cell_5_3 cell_6_3 cell_7_3 cell_8_3 cell_9_3) true))
(assert
 (and (distinct cell_1_4 cell_2_4 cell_3_4 cell_4_4 cell_5_4 cell_6_4 cell_7_4 cell_8_4 cell_9_4) true))
(assert
 (and (distinct cell_1_5 cell_2_5 cell_3_5 cell_4_5 cell_5_5 cell_6_5 cell_7_5 cell_8_5 cell_9_5) true))
(assert
 (and (distinct cell_1_6 cell_2_6 cell_3_6 cell_4_6 cell_5_6 cell_6_6 cell_7_6 cell_8_6 cell_9_6) true))
(assert
 (and (distinct cell_1_7 cell_2_7 cell_3_7 cell_4_7 cell_5_7 cell_6_7 cell_7_7 cell_8_7 cell_9_7) true))
(assert
 (and (distinct cell_1_8 cell_2_8 cell_3_8 cell_4_8 cell_5_8 cell_6_8 cell_7_8 cell_8_8 cell_9_8) true))
(assert
 (and (distinct cell_1_9 cell_2_9 cell_3_9 cell_4_9 cell_5_9 cell_6_9 cell_7_9 cell_8_9 cell_9_9) true))
(assert
 (and (distinct cell_1_1 cell_1_2 cell_1_3 cell_2_1 cell_2_2 cell_2_3 cell_3_1 cell_3_2 cell_3_3) true))
(assert
 (and (distinct cell_1_4 cell_1_5 cell_1_6 cell_2_4 cell_2_5 cell_2_6 cell_3_4 cell_3_5 cell_3_6) true))
(assert
 (and (distinct cell_1_7 cell_1_8 cell_1_9 cell_2_7 cell_2_8 cell_2_9 cell_3_7 cell_3_8 cell_3_9) true))
(assert
 (and (distinct cell_4_1 cell_4_2 cell_4_3 cell_5_1 cell_5_2 cell_5_3 cell_6_1 cell_6_2 cell_6_3) true))
(assert
 (and (distinct cell_4_4 cell_4_5 cell_4_6 cell_5_4 cell_5_5 cell_5_6 cell_6_4 cell_6_5 cell_6_6) true))
(assert
 (and (distinct cell_4_7 cell_4_8 cell_4_9 cell_5_7 cell_5_8 cell_5_9 cell_6_7 cell_6_8 cell_6_9) true))
(assert
 (and (distinct cell_7_1 cell_7_2 cell_7_3 cell_8_1 cell_8_2 cell_8_3 cell_9_1 cell_9_2 cell_9_3) true))
(assert
 (and (distinct cell_7_4 cell_7_5 cell_7_6 cell_8_4 cell_8_5 cell_8_6 cell_9_4 cell_9_5 cell_9_6) true))
(assert
 (and (distinct cell_7_7 cell_7_8 cell_7_9 cell_8_7 cell_8_8 cell_8_9 cell_9_7 cell_9_8 cell_9_9) true))
(assert
 (let (($x3246 (and (distinct cell_5_9 cell_6_8 cell_7_7 cell_8_6) true)))
 (let (($x532 (and (distinct cell_2_9 cell_3_8 cell_4_7 cell_5_6 cell_6_5 cell_7_4 cell_8_3 cell_9_2) true)))
 (let (($x3319 (and (distinct cell_1_8 cell_2_7 cell_3_6 cell_4_5 cell_5_4 cell_6_3 cell_7_2 cell_8_1) true)))
 (let (($x2312 (and (distinct cell_1_5 cell_2_4 cell_3_3 cell_4_2) true)))
 (let (($x2885 (and (distinct cell_5_1 cell_6_2 cell_7_3 cell_8_4) true)))
 (let (($x43 (and (distinct cell_2_1 cell_3_2 cell_4_3 cell_5_4 cell_6_5 cell_7_6 cell_8_7 cell_9_8) true)))
 (let (($x3309 (and (distinct cell_1_2 cell_2_3 cell_3_4 cell_4_5 cell_5_6 cell_6_7 cell_7_8 cell_8_9) true)))
 (let (($x3094 (and (distinct cell_1_5 cell_2_6 cell_3_7 cell_4_8) true)))
 (and $x3094 $x3309 $x43 $x2885 $x2312 $x3319 $x532 $x3246))))))))))
(assert
 (= cell_6_8 2))
(check-sat)
